c Resource 2 (Action Points) file for NavMesh graph
p sp 69 150
a 1 12 30
a 1 5 30
a 2 7 30
a 2 10 30
a 3 26 100
a 3 5 100
a 4 11 50
a 4 7 50
a 5 3 150
a 5 1 150
a 5 10 150
a 6 66 100
a 6 9 100
a 7 4 30
a 7 2 30
a 8 47 150
a 8 10 150
a 9 6 50
a 9 10 50
a 10 2 30
a 10 9 30
a 10 8 30
a 10 5 30
a 11 4 30
a 11 13 30
a 12 1 50
a 12 14 50
a 13 14 150
a 13 11 150
a 14 12 100
a 14 13 100
a 15 20 30
a 15 17 30
a 16 19 50
a 16 18 50
a 17 15 30
a 17 18 30
a 18 17 100
a 18 16 100
a 19 16 30
a 19 34 30
a 20 15 150
a 20 37 150
a 21 28 150
a 22 34 100
a 23 41 30
a 23 29 30
a 24 31 100
a 25 57 30
a 25 29 30
a 26 3 100
a 26 37 100
a 27 29 100
a 27 35 100
a 28 21 100
a 28 30 100
a 28 40 100
a 29 25 30
a 29 23 30
a 29 27 30
a 30 28 30
a 30 31 30
a 31 35 50
a 31 30 50
a 31 24 50
a 31 38 50
a 32 37 50
a 32 35 50
a 33 49 100
a 33 35 100
a 34 22 150
a 34 19 150
a 34 36 150
a 35 33 50
a 35 27 50
a 35 31 50
a 35 32 50
a 36 34 150
a 36 38 150
a 37 20 100
a 37 26 100
a 37 32 100
a 38 36 100
a 38 31 100
a 40 28 100
a 40 43 100
a 41 23 150
a 41 42 150
a 42 41 150
a 42 44 150
a 43 44 50
a 43 40 50
a 44 42 150
a 44 43 150
a 45 62 30
a 45 50 30
a 46 49 100
a 46 50 100
a 47 8 100
a 47 50 100
a 48 67 50
a 48 50 50
a 49 33 100
a 49 46 100
a 50 45 50
a 50 46 50
a 50 47 50
a 50 48 50
a 51 69 100
a 51 53 100
a 52 68 100
a 52 55 100
a 53 51 50
a 53 61 50
a 54 57 150
a 54 60 150
a 54 55 150
a 55 52 100
a 55 54 100
a 56 63 30
a 56 58 30
a 57 25 30
a 57 54 30
a 58 56 150
a 58 60 150
a 59 62 100
a 59 60 100
a 60 61 100
a 60 54 100
a 60 59 100
a 60 58 100
a 61 53 100
a 61 60 100
a 62 45 150
a 62 59 150
a 63 56 30
a 63 65 30
a 64 67 50
a 65 63 30
a 65 67 30
a 66 6 50
a 66 67 50
a 67 48 50
a 67 66 50
a 67 64 50
a 67 65 50
a 68 52 50
a 68 69 50
a 69 51 150
a 69 68 150
